letting np_cars_plus be 171
letting np_classes be 89
letting np_options be 32
letting quantity_range_min be 2
letting quantity_range_delta be 193
letting maxcars_range_min be 5
letting maxcars_range_delta be 2
letting blksize_delta_range_min be 3
letting blksize_delta_range_delta be 5
letting usage_card_min be 650
letting usage_card_delta be 33